Instance0
Gap





8.43%
8.43%
8.43%
7.62%
7.48%
6.43%
6.11%
5.94%
5.65%
5.42%
5.38%
5.00%
4.23%
4.23%
4.02%
3.82%
3.79%
3.79%
3.62%
2.85%
2.74%
2.18%
1.90%
1.86%
1.73%
1.67%
1.67%
0
CPXPARAM_MIP_Cuts_Disjunctive-LiftProj-MIRCut-FlowCovers:Disjunctive 0
CPXPARAM_MIP_Cuts_Disjunctive-LiftProj-MIRCut-FlowCovers:LiftProj 0
CPXPARAM_MIP_Cuts_Disjunctive-LiftProj-MIRCut-FlowCovers:MIRCut 15
CPXPARAM_MIP_Cuts_Disjunctive-LiftProj-MIRCut-FlowCovers:FlowCovers 0
Instance1
Gap



67.68%
59.00%
57.36%
54.74%
54.67%
54.47%
54.09%
53.77%
52.45%
51.51%
51.32%
51.32%
51.29%
50.37%
50.32%
49.68%
48.81%
47.60%
47.46%
44.05%
41.28%
40.42%
40.38%
38.91%
37.06%
37.00%
34.53%
27.05%
27.05%
27.00%
24.44%
21.53%
17.58%
17.58%
17.58%
14.14%
12.22%
4.74%
0
CPXPARAM_MIP_Cuts_Disjunctive-LiftProj-MIRCut-FlowCovers:Disjunctive 0
CPXPARAM_MIP_Cuts_Disjunctive-LiftProj-MIRCut-FlowCovers:LiftProj 0
CPXPARAM_MIP_Cuts_Disjunctive-LiftProj-MIRCut-FlowCovers:MIRCut 9
CPXPARAM_MIP_Cuts_Disjunctive-LiftProj-MIRCut-FlowCovers:FlowCovers 0
Instance2
Gap


0.35%
0.35%
0.35%
0
CPXPARAM_MIP_Cuts_Disjunctive-LiftProj-MIRCut-FlowCovers:Disjunctive 0
CPXPARAM_MIP_Cuts_Disjunctive-LiftProj-MIRCut-FlowCovers:LiftProj 0
CPXPARAM_MIP_Cuts_Disjunctive-LiftProj-MIRCut-FlowCovers:MIRCut 0
CPXPARAM_MIP_Cuts_Disjunctive-LiftProj-MIRCut-FlowCovers:FlowCovers 0
Instance3
Gap

0.00%
0
CPXPARAM_MIP_Cuts_Disjunctive-LiftProj-MIRCut-FlowCovers:Disjunctive 0
CPXPARAM_MIP_Cuts_Disjunctive-LiftProj-MIRCut-FlowCovers:LiftProj 0
CPXPARAM_MIP_Cuts_Disjunctive-LiftProj-MIRCut-FlowCovers:MIRCut 0
CPXPARAM_MIP_Cuts_Disjunctive-LiftProj-MIRCut-FlowCovers:FlowCovers 0
Instance4
Gap



5.62%
5.62%
5.62%
5.56%
5.35%
5.33%
5.00%
4.93%
4.87%
4.80%
4.70%
4.25%
3.82%
3.56%
3.26%
2.78%
2.41%
2.07%
1.91%
1.38%
1.38%
0.97%
0.62%
0.37%
0
CPXPARAM_MIP_Cuts_Disjunctive-LiftProj-MIRCut-FlowCovers:Disjunctive 0
CPXPARAM_MIP_Cuts_Disjunctive-LiftProj-MIRCut-FlowCovers:LiftProj 0
CPXPARAM_MIP_Cuts_Disjunctive-LiftProj-MIRCut-FlowCovers:MIRCut 5
CPXPARAM_MIP_Cuts_Disjunctive-LiftProj-MIRCut-FlowCovers:FlowCovers 0
Instance5
Gap



74.62%
68.24%
61.48%
57.66%
56.72%
55.93%
55.60%
54.91%
53.14%
51.83%
51.16%
50.17%
48.50%
42.75%
41.20%
39.16%
37.47%
37.27%
36.41%
35.02%
34.72%
34.34%
33.58%
33.08%
32.23%
31.03%
28.54%
27.75%
26.18%
18.09%
16.79%
16.79%
16.79%
12.84%
10.11%
10.11%
6.45%
0
CPXPARAM_MIP_Cuts_Disjunctive-LiftProj-MIRCut-FlowCovers:Disjunctive 0
CPXPARAM_MIP_Cuts_Disjunctive-LiftProj-MIRCut-FlowCovers:LiftProj 0
CPXPARAM_MIP_Cuts_Disjunctive-LiftProj-MIRCut-FlowCovers:MIRCut 8
CPXPARAM_MIP_Cuts_Disjunctive-LiftProj-MIRCut-FlowCovers:FlowCovers 0
Instance6
Gap
111.50%
92.96%
92.96%
92.96%
CPXPARAM_MIP_Cuts_Disjunctive-LiftProj-MIRCut-FlowCovers:Disjunctive 0
CPXPARAM_MIP_Cuts_Disjunctive-LiftProj-MIRCut-FlowCovers:LiftProj 0
CPXPARAM_MIP_Cuts_Disjunctive-LiftProj-MIRCut-FlowCovers:MIRCut 0
CPXPARAM_MIP_Cuts_Disjunctive-LiftProj-MIRCut-FlowCovers:FlowCovers 1
Instance7
Gap

23.59%
23.59%
23.59%
23.59%
11.04%
CPXPARAM_MIP_Cuts_Disjunctive-LiftProj-MIRCut-FlowCovers:Disjunctive 0
CPXPARAM_MIP_Cuts_Disjunctive-LiftProj-MIRCut-FlowCovers:LiftProj 0
CPXPARAM_MIP_Cuts_Disjunctive-LiftProj-MIRCut-FlowCovers:MIRCut 0
CPXPARAM_MIP_Cuts_Disjunctive-LiftProj-MIRCut-FlowCovers:FlowCovers 1
Instance8
Gap



3.04%
3.04%
3.04%
3.00%
3.00%
2.75%
2.70%
2.32%
2.30%
2.26%
1.84%
1.71%
1.53%
1.50%
1.34%
1.09%
0.90%
0.30%
0
CPXPARAM_MIP_Cuts_Disjunctive-LiftProj-MIRCut-FlowCovers:Disjunctive 0
CPXPARAM_MIP_Cuts_Disjunctive-LiftProj-MIRCut-FlowCovers:LiftProj 0
CPXPARAM_MIP_Cuts_Disjunctive-LiftProj-MIRCut-FlowCovers:MIRCut 5
CPXPARAM_MIP_Cuts_Disjunctive-LiftProj-MIRCut-FlowCovers:FlowCovers 0
Instance9
Gap
























0
CPXPARAM_MIP_Cuts_Disjunctive-LiftProj-MIRCut-FlowCovers:Disjunctive 0
CPXPARAM_MIP_Cuts_Disjunctive-LiftProj-MIRCut-FlowCovers:LiftProj 0
CPXPARAM_MIP_Cuts_Disjunctive-LiftProj-MIRCut-FlowCovers:MIRCut 14
CPXPARAM_MIP_Cuts_Disjunctive-LiftProj-MIRCut-FlowCovers:FlowCovers 2
Instance10
Gap

0.01%
CPXPARAM_MIP_Cuts_Disjunctive-LiftProj-MIRCut-FlowCovers:Disjunctive 0
CPXPARAM_MIP_Cuts_Disjunctive-LiftProj-MIRCut-FlowCovers:LiftProj 0
CPXPARAM_MIP_Cuts_Disjunctive-LiftProj-MIRCut-FlowCovers:MIRCut 0
CPXPARAM_MIP_Cuts_Disjunctive-LiftProj-MIRCut-FlowCovers:FlowCovers 0
Instance11
Gap

0.02%
0.02%
0.02%
0
CPXPARAM_MIP_Cuts_Disjunctive-LiftProj-MIRCut-FlowCovers:Disjunctive 0
CPXPARAM_MIP_Cuts_Disjunctive-LiftProj-MIRCut-FlowCovers:LiftProj 0
CPXPARAM_MIP_Cuts_Disjunctive-LiftProj-MIRCut-FlowCovers:MIRCut 0
CPXPARAM_MIP_Cuts_Disjunctive-LiftProj-MIRCut-FlowCovers:FlowCovers 0
Instance12
Gap


















8.95%
8.95%
8.95%
8.72%
8.42%
8.37%
8.28%
7.92%
7.67%
7.50%
7.30%
7.27%
7.12%
7.04%
6.96%
6.86%
6.85%
6.80%
CPXPARAM_MIP_Cuts_Disjunctive-LiftProj-MIRCut-FlowCovers:Disjunctive 0
CPXPARAM_MIP_Cuts_Disjunctive-LiftProj-MIRCut-FlowCovers:LiftProj 0
CPXPARAM_MIP_Cuts_Disjunctive-LiftProj-MIRCut-FlowCovers:MIRCut 18
CPXPARAM_MIP_Cuts_Disjunctive-LiftProj-MIRCut-FlowCovers:FlowCovers 0
Instance13
Gap

37.35%
36.13%
33.68%
30.91%
28.81%
25.76%
24.84%
24.26%
24.15%
23.73%
23.72%
23.61%
23.54%
23.38%
23.31%
23.26%
23.23%
22.95%
22.61%
22.49%
22.21%
22.13%
21.49%
21.18%
20.90%
20.79%
20.65%
20.29%
20.23%
CPXPARAM_MIP_Cuts_Disjunctive-LiftProj-MIRCut-FlowCovers:Disjunctive 0
CPXPARAM_MIP_Cuts_Disjunctive-LiftProj-MIRCut-FlowCovers:LiftProj 0
CPXPARAM_MIP_Cuts_Disjunctive-LiftProj-MIRCut-FlowCovers:MIRCut 13
CPXPARAM_MIP_Cuts_Disjunctive-LiftProj-MIRCut-FlowCovers:FlowCovers 0
Instance14
Gap

1.86%
1.86%
1.86%
1.86%
0
CPXPARAM_MIP_Cuts_Disjunctive-LiftProj-MIRCut-FlowCovers:Disjunctive 0
CPXPARAM_MIP_Cuts_Disjunctive-LiftProj-MIRCut-FlowCovers:LiftProj 0
CPXPARAM_MIP_Cuts_Disjunctive-LiftProj-MIRCut-FlowCovers:MIRCut 0
CPXPARAM_MIP_Cuts_Disjunctive-LiftProj-MIRCut-FlowCovers:FlowCovers 1
Instance15
Gap
112.51%
98.57%
98.57%
29.55%
29.55%
29.55%
CPXPARAM_MIP_Cuts_Disjunctive-LiftProj-MIRCut-FlowCovers:Disjunctive 0
CPXPARAM_MIP_Cuts_Disjunctive-LiftProj-MIRCut-FlowCovers:LiftProj 0
CPXPARAM_MIP_Cuts_Disjunctive-LiftProj-MIRCut-FlowCovers:MIRCut 0
CPXPARAM_MIP_Cuts_Disjunctive-LiftProj-MIRCut-FlowCovers:FlowCovers 2
Instance16
Gap



1.66%
1.66%
1.66%
1.65%
1.60%
1.36%
1.34%
1.34%
1.33%
1.33%
0.00%
CPXPARAM_MIP_Cuts_Disjunctive-LiftProj-MIRCut-FlowCovers:Disjunctive 0
CPXPARAM_MIP_Cuts_Disjunctive-LiftProj-MIRCut-FlowCovers:LiftProj 1
CPXPARAM_MIP_Cuts_Disjunctive-LiftProj-MIRCut-FlowCovers:MIRCut 3
CPXPARAM_MIP_Cuts_Disjunctive-LiftProj-MIRCut-FlowCovers:FlowCovers 2
Instance17
Gap



47.95%
46.03%
43.51%
42.85%
42.31%
42.16%
41.83%
41.81%
40.75%
CPXPARAM_MIP_Cuts_Disjunctive-LiftProj-MIRCut-FlowCovers:Disjunctive 0
CPXPARAM_MIP_Cuts_Disjunctive-LiftProj-MIRCut-FlowCovers:LiftProj 0
CPXPARAM_MIP_Cuts_Disjunctive-LiftProj-MIRCut-FlowCovers:MIRCut 4
CPXPARAM_MIP_Cuts_Disjunctive-LiftProj-MIRCut-FlowCovers:FlowCovers 6
Instance18
Gap
110.91%
93.14%
93.14%
0.05%
0.05%
0.05%
0
CPXPARAM_MIP_Cuts_Disjunctive-LiftProj-MIRCut-FlowCovers:Disjunctive 0
CPXPARAM_MIP_Cuts_Disjunctive-LiftProj-MIRCut-FlowCovers:LiftProj 0
CPXPARAM_MIP_Cuts_Disjunctive-LiftProj-MIRCut-FlowCovers:MIRCut 1
CPXPARAM_MIP_Cuts_Disjunctive-LiftProj-MIRCut-FlowCovers:FlowCovers 2
Instance19
Gap
114.31%
97.72%
97.72%
1.26%
1.26%
1.26%
1.26%
1.26%
1.21%
CPXPARAM_MIP_Cuts_Disjunctive-LiftProj-MIRCut-FlowCovers:Disjunctive 0
CPXPARAM_MIP_Cuts_Disjunctive-LiftProj-MIRCut-FlowCovers:LiftProj 1
CPXPARAM_MIP_Cuts_Disjunctive-LiftProj-MIRCut-FlowCovers:MIRCut 0
CPXPARAM_MIP_Cuts_Disjunctive-LiftProj-MIRCut-FlowCovers:FlowCovers 2
Instance20
Gap


0.00%
CPXPARAM_MIP_Cuts_Disjunctive-LiftProj-MIRCut-FlowCovers:Disjunctive 0
CPXPARAM_MIP_Cuts_Disjunctive-LiftProj-MIRCut-FlowCovers:LiftProj 0
CPXPARAM_MIP_Cuts_Disjunctive-LiftProj-MIRCut-FlowCovers:MIRCut 0
CPXPARAM_MIP_Cuts_Disjunctive-LiftProj-MIRCut-FlowCovers:FlowCovers 0
Instance21
Gap



23.11%
16.33%
14.19%
14.19%
14.19%
12.22%
11.89%
11.11%
0
CPXPARAM_MIP_Cuts_Disjunctive-LiftProj-MIRCut-FlowCovers:Disjunctive 0
CPXPARAM_MIP_Cuts_Disjunctive-LiftProj-MIRCut-FlowCovers:LiftProj 0
CPXPARAM_MIP_Cuts_Disjunctive-LiftProj-MIRCut-FlowCovers:MIRCut 1
CPXPARAM_MIP_Cuts_Disjunctive-LiftProj-MIRCut-FlowCovers:FlowCovers 5
Instance22
Gap

0.39%
0.39%
0.39%
0.39%
0.39%
0.36%
0.33%
CPXPARAM_MIP_Cuts_Disjunctive-LiftProj-MIRCut-FlowCovers:Disjunctive 0
CPXPARAM_MIP_Cuts_Disjunctive-LiftProj-MIRCut-FlowCovers:LiftProj 0
CPXPARAM_MIP_Cuts_Disjunctive-LiftProj-MIRCut-FlowCovers:MIRCut 1
CPXPARAM_MIP_Cuts_Disjunctive-LiftProj-MIRCut-FlowCovers:FlowCovers 1
Instance23
Gap

3.15%
3.15%
3.15%
3.10%
0
CPXPARAM_MIP_Cuts_Disjunctive-LiftProj-MIRCut-FlowCovers:Disjunctive 0
CPXPARAM_MIP_Cuts_Disjunctive-LiftProj-MIRCut-FlowCovers:LiftProj 0
CPXPARAM_MIP_Cuts_Disjunctive-LiftProj-MIRCut-FlowCovers:MIRCut 1
CPXPARAM_MIP_Cuts_Disjunctive-LiftProj-MIRCut-FlowCovers:FlowCovers 0
Instance24
Gap

10.00%
9.93%
7.82%
7.82%
7.82%
7.47%
7.18%
7.17%
6.42%
4.96%
4.41%
2.63%
2.63%
1.11%
0
CPXPARAM_MIP_Cuts_Disjunctive-LiftProj-MIRCut-FlowCovers:Disjunctive 1
CPXPARAM_MIP_Cuts_Disjunctive-LiftProj-MIRCut-FlowCovers:LiftProj 1
CPXPARAM_MIP_Cuts_Disjunctive-LiftProj-MIRCut-FlowCovers:MIRCut 4
CPXPARAM_MIP_Cuts_Disjunctive-LiftProj-MIRCut-FlowCovers:FlowCovers 0
Instance25
Gap



0.00%
CPXPARAM_MIP_Cuts_Disjunctive-LiftProj-MIRCut-FlowCovers:Disjunctive 0
CPXPARAM_MIP_Cuts_Disjunctive-LiftProj-MIRCut-FlowCovers:LiftProj 0
CPXPARAM_MIP_Cuts_Disjunctive-LiftProj-MIRCut-FlowCovers:MIRCut 0
CPXPARAM_MIP_Cuts_Disjunctive-LiftProj-MIRCut-FlowCovers:FlowCovers 0
Instance26
Gap
0.00%
CPXPARAM_MIP_Cuts_Disjunctive-LiftProj-MIRCut-FlowCovers:Disjunctive 0
CPXPARAM_MIP_Cuts_Disjunctive-LiftProj-MIRCut-FlowCovers:LiftProj 0
CPXPARAM_MIP_Cuts_Disjunctive-LiftProj-MIRCut-FlowCovers:MIRCut 0
CPXPARAM_MIP_Cuts_Disjunctive-LiftProj-MIRCut-FlowCovers:FlowCovers 0
Instance27
Gap

0.42%
0.42%
0.42%
0.42%
0.42%
0.42%
0.33%
CPXPARAM_MIP_Cuts_Disjunctive-LiftProj-MIRCut-FlowCovers:Disjunctive 0
CPXPARAM_MIP_Cuts_Disjunctive-LiftProj-MIRCut-FlowCovers:LiftProj 0
CPXPARAM_MIP_Cuts_Disjunctive-LiftProj-MIRCut-FlowCovers:MIRCut 1
CPXPARAM_MIP_Cuts_Disjunctive-LiftProj-MIRCut-FlowCovers:FlowCovers 1
Instance28
Gap



9.39%
9.39%
9.39%
8.57%
8.27%
8.08%
7.25%
7.23%
7.16%
6.83%
6.74%
6.56%
3.25%
2.96%
2.04%
1.90%
1.75%
1.54%
0.90%
0.72%
0.55%
0.55%
0.00%
CPXPARAM_MIP_Cuts_Disjunctive-LiftProj-MIRCut-FlowCovers:Disjunctive 0
CPXPARAM_MIP_Cuts_Disjunctive-LiftProj-MIRCut-FlowCovers:LiftProj 0
CPXPARAM_MIP_Cuts_Disjunctive-LiftProj-MIRCut-FlowCovers:MIRCut 7
CPXPARAM_MIP_Cuts_Disjunctive-LiftProj-MIRCut-FlowCovers:FlowCovers 0
Instance29
Gap
111.49%
406.57%
82.87%
82.87%
82.87%
82.87%
CPXPARAM_MIP_Cuts_Disjunctive-LiftProj-MIRCut-FlowCovers:Disjunctive 1
CPXPARAM_MIP_Cuts_Disjunctive-LiftProj-MIRCut-FlowCovers:LiftProj 1
CPXPARAM_MIP_Cuts_Disjunctive-LiftProj-MIRCut-FlowCovers:MIRCut 3
CPXPARAM_MIP_Cuts_Disjunctive-LiftProj-MIRCut-FlowCovers:FlowCovers 0
Instance30
Gap
120.75%
227.70%
17.33%
17.33%
0.85%
0.85%
0.85%
0.85%
0.85%
0.85%
CPXPARAM_MIP_Cuts_Disjunctive-LiftProj-MIRCut-FlowCovers:Disjunctive 0
CPXPARAM_MIP_Cuts_Disjunctive-LiftProj-MIRCut-FlowCovers:LiftProj 0
CPXPARAM_MIP_Cuts_Disjunctive-LiftProj-MIRCut-FlowCovers:MIRCut 2
CPXPARAM_MIP_Cuts_Disjunctive-LiftProj-MIRCut-FlowCovers:FlowCovers 0
Instance31
Gap

5.20%
5.20%
5.20%
5.20%
1.76%
CPXPARAM_MIP_Cuts_Disjunctive-LiftProj-MIRCut-FlowCovers:Disjunctive 0
CPXPARAM_MIP_Cuts_Disjunctive-LiftProj-MIRCut-FlowCovers:LiftProj 0
CPXPARAM_MIP_Cuts_Disjunctive-LiftProj-MIRCut-FlowCovers:MIRCut 0
CPXPARAM_MIP_Cuts_Disjunctive-LiftProj-MIRCut-FlowCovers:FlowCovers 1
Instance32
Gap





4.19%
4.19%
4.19%
0
CPXPARAM_MIP_Cuts_Disjunctive-LiftProj-MIRCut-FlowCovers:Disjunctive 0
CPXPARAM_MIP_Cuts_Disjunctive-LiftProj-MIRCut-FlowCovers:LiftProj 0
CPXPARAM_MIP_Cuts_Disjunctive-LiftProj-MIRCut-FlowCovers:MIRCut 2
CPXPARAM_MIP_Cuts_Disjunctive-LiftProj-MIRCut-FlowCovers:FlowCovers 7
Instance33
Gap



36.97%
0
CPXPARAM_MIP_Cuts_Disjunctive-LiftProj-MIRCut-FlowCovers:Disjunctive 0
CPXPARAM_MIP_Cuts_Disjunctive-LiftProj-MIRCut-FlowCovers:LiftProj 0
CPXPARAM_MIP_Cuts_Disjunctive-LiftProj-MIRCut-FlowCovers:MIRCut 0
CPXPARAM_MIP_Cuts_Disjunctive-LiftProj-MIRCut-FlowCovers:FlowCovers 4
Instance34
Gap

0.14%
0
CPXPARAM_MIP_Cuts_Disjunctive-LiftProj-MIRCut-FlowCovers:Disjunctive 0
CPXPARAM_MIP_Cuts_Disjunctive-LiftProj-MIRCut-FlowCovers:LiftProj 0
CPXPARAM_MIP_Cuts_Disjunctive-LiftProj-MIRCut-FlowCovers:MIRCut 0
CPXPARAM_MIP_Cuts_Disjunctive-LiftProj-MIRCut-FlowCovers:FlowCovers 0
Instance35
Gap

2.41%
2.41%
2.41%
2.38%
0
CPXPARAM_MIP_Cuts_Disjunctive-LiftProj-MIRCut-FlowCovers:Disjunctive 0
CPXPARAM_MIP_Cuts_Disjunctive-LiftProj-MIRCut-FlowCovers:LiftProj 0
CPXPARAM_MIP_Cuts_Disjunctive-LiftProj-MIRCut-FlowCovers:MIRCut 1
CPXPARAM_MIP_Cuts_Disjunctive-LiftProj-MIRCut-FlowCovers:FlowCovers 0
Instance36
Gap



7.01%
7.01%
7.01%
6.96%
6.39%
6.25%
0
CPXPARAM_MIP_Cuts_Disjunctive-LiftProj-MIRCut-FlowCovers:Disjunctive 0
CPXPARAM_MIP_Cuts_Disjunctive-LiftProj-MIRCut-FlowCovers:LiftProj 0
CPXPARAM_MIP_Cuts_Disjunctive-LiftProj-MIRCut-FlowCovers:MIRCut 3
CPXPARAM_MIP_Cuts_Disjunctive-LiftProj-MIRCut-FlowCovers:FlowCovers 3
Instance37
Gap





























60.24%
57.51%
54.43%
54.14%
53.27%
52.49%
50.13%
43.48%
42.82%
42.06%
40.83%
39.81%
37.36%
36.96%
35.85%
32.82%
30.39%
23.30%
23.30%
23.30%
17.48%
6.63%
3.57%
0
CPXPARAM_MIP_Cuts_Disjunctive-LiftProj-MIRCut-FlowCovers:Disjunctive 1
CPXPARAM_MIP_Cuts_Disjunctive-LiftProj-MIRCut-FlowCovers:LiftProj 0
CPXPARAM_MIP_Cuts_Disjunctive-LiftProj-MIRCut-FlowCovers:MIRCut 6
CPXPARAM_MIP_Cuts_Disjunctive-LiftProj-MIRCut-FlowCovers:FlowCovers 1
Instance38
Gap

0.21%
0.21%
0.21%
0.21%
0
CPXPARAM_MIP_Cuts_Disjunctive-LiftProj-MIRCut-FlowCovers:Disjunctive 0
CPXPARAM_MIP_Cuts_Disjunctive-LiftProj-MIRCut-FlowCovers:LiftProj 0
CPXPARAM_MIP_Cuts_Disjunctive-LiftProj-MIRCut-FlowCovers:MIRCut 0
CPXPARAM_MIP_Cuts_Disjunctive-LiftProj-MIRCut-FlowCovers:FlowCovers 1
Instance39
Gap


0.50%
0.50%
0.50%
0
CPXPARAM_MIP_Cuts_Disjunctive-LiftProj-MIRCut-FlowCovers:Disjunctive 0
CPXPARAM_MIP_Cuts_Disjunctive-LiftProj-MIRCut-FlowCovers:LiftProj 0
CPXPARAM_MIP_Cuts_Disjunctive-LiftProj-MIRCut-FlowCovers:MIRCut 0
CPXPARAM_MIP_Cuts_Disjunctive-LiftProj-MIRCut-FlowCovers:FlowCovers 0
